2,3
3,9
5,9
8,1
10,2
12,3
14,5
16,7
18,9
21,1
23,3
25,5
27,7
29,9
32,1
34,4
36,6
37,1
37,1
37,1
37,1
37,1
37,1
37,1
37,1
37,1
37,1
37,1
37,1
37,1
37,1
37,1
37,1
37,1
37,1
37,1
37,1
37,1
37,1
37,1
0,0
0,0
